%%% Exp_DoseResponse conditions	%%%
%% Description: experiment data provided by Polina
%% 2021/Mar/08



%% Plate dimentions: (this is a 96-well plate)
num_rows = 16; %% height
num_cols = 24; %% width


horizontal_cell_lines = 1;
vertical_cell_lines = 1;

allow_empty_wells = true;
size_empty_edge = 1;

% New and used!
concentrations_on_different_rows = false;
concentrations_on_different_columns = false;

% New and unused! (Restriction: replicates_on_different_plates /\ replicates_on_same_plate == false)
replicates_on_different_plates = false;
replicates_on_same_plate = false;

%%% Compounds %%%
compounds = 288; %% number of drugs/compounds
compound_concentrations	 = [ 3 | i in 1..compounds ]; 
compound_replicates	 = [ 4 | i in 1..compounds ];
compound_names = ["[dmso]","(1)","[2]","[3]","[4]","[5]","(6)","[7]","[8]","[9]","[10]","[11]","[12]","[13]","(78)","(79)","(80)","(81)","(82)","(83)","(84)","(85)","(86)","(87)","(88)","(89)","(90)","(91)","(92)","(93)","(94)","(95)","(96)","(97)","(98)","(99)","(100)","(101)","(102)","(103)","(104)","(105)","(106)","(107)","[108]","[109]","[110]","(111)","[112]","(113)","(114)","(115)","(116)","(117)","(118)","(119)","(120)","(121)","(122)","(123)","(124)","(125)","(126)","(127)","(128)","(129)","(130)","(131)","(132)","[133]","(134)","(135)","(136)","(137)","(138)","(139)","(140)","(141)","(142)","(143)","(144)","(145)","(146)","(147)","(148)","(149)","(150)","(151)","(152)","(153)","(154)","(155)","(156)","(157)","(158)","(159)","(160)","(161)","(162)","(163)","(164)","(165)","(166)","(167)","(168)","(169)","(170)","(171)","(172)","(173)","(174)","(175)","(176)","(177)","[178]","[179]","(180)","[181]","[182]","(183)","(184)","(185)","(186)","(187)","(188)","[189]","[190]","(191)","(192)","(193)","[194]","[195]","[196]","[197]","(198)","(199)","(200)","(201)","(202)","(203)","(204)","(205)","(206)","(207)","(208)","[209]","(210)","(211)","(212)","(213)","[214]","[215]","(216)","(217)","(218)","(219)","(220)","(221)","(222)","(223)","[224]","[225]","(226)","(227)","(228)","(229)","(230)","(231)","(232)","(233)","(234)","(235)","(236)","(237)","(238)","(239)","(240)","(241)","(242)","(243)","(244)","(245)","(246)","[247]","[248]","(249)","(250)","(251)","[252]","[253]","(254)","(255)","(256)","(257)","[258]","(259)","(260)","[261]","(262)","[263]","(264)","[265]","(266)","(267)","[268]","(269)","(270)","(271)","(272)","(273)","(274)","[275]","(276)","(277)","(278)","(279)","(280)","(281)","(282)","(283)","(284)","(285)","(286)","(287)","(288)","(289)","(290)","(291)","(292)","(293)","(294)","(295)","(296)","(297)","(298)","(299)","(300)","(301)","(302)","(303)","[304]","(305)","(306)","(307)","(308)","[309]","(310)","(311)","(312)","(313)","(314)","(315)","(316)","(317)","(318)","(319)","[320]","(321)","(322)","(323)","(324)","(325)","(326)","[327]","(328)","(329)","(330)","(331)","(332)","(333)","(334)","(335)","(336)","(337)","(338)","(339)","(340)","(341)","(342)","(343)","[344]","(345)","(346)","(347)","(348)","(349)","(350)","(351)"];

compound_concentration_names = [|"1 ","5 ","10 "|"1 ","5 ","10 "|"1 ","5 ","10 "|"1 ","5 ","10 "|"1 ","5 ","10 "|"1 ","5 ","10 "|"1 ","5 ","10 "|"1 ","5 ","10 "|"1 ","5 ","10 "|"1 ","5 ","10 "|"1 ","5 ","10 "|"1 ","5 ","10 "|"1 ","5 ","10 "|"1 ","5 ","10 "|"1 ","5 ","10 "|"1 ","5 ","10 "|"1 ","5 ","10 "|"1 ","5 ","10 "|"1 ","5 ","10 "|"1 ","5 ","10 "|"1 ","5 ","10 "|"1 ","5 ","10 "|"1 ","5 ","10 "|"1 ","5 ","10 "|"1 ","5 ","10 "|"1 ","5 ","10 "|"1 ","5 ","10 "|"1 ","5 ","10 "|"1 ","5 ","10 "|"1 ","5 ","10 "|"1 ","5 ","10 "|"1 ","5 ","10 "|"1 ","5 ","10 "|"1 ","5 ","10 "|"1 ","5 ","10 "|"1 ","5 ","10 "|"1 ","5 ","10 "|"1 ","5 ","10 "|"1 ","5 ","10 "|"1 ","5 ","10 "|"1 ","5 ","10 "|"1 ","5 ","10 "|"1 ","5 ","10 "|"1 ","5 ","10 "|"1 ","5 ","10 "|"1 ","5 ","10 "|"1 ","5 ","10 "|"1 ","5 ","10 "|"1 ","5 ","10 "|"1 ","5 ","10 "|"1 ","5 ","10 "|"1 ","5 ","10 "|"1 ","5 ","10 "|"1 ","5 ","10 "|"1 ","5 ","10 "|"1 ","5 ","10 "|"1 ","5 ","10 "|"1 ","5 ","10 "|"1 ","5 ","10 "|"1 ","5 ","10 "|"1 ","5 ","10 "|"1 ","5 ","10 "|"1 ","5 ","10 "|"1 ","5 ","10 "|"1 ","5 ","10 "|"1 ","5 ","10 "|"1 ","5 ","10 "|"1 ","5 ","10 "|"1 ","5 ","10 "|"1 ","5 ","10 "|"1 ","5 ","10 "|"1 ","5 ","10 "|"1 ","5 ","10 "|"1 ","5 ","10 "|"1 ","5 ","10 "|"1 ","5 ","10 "|"1 ","5 ","10 "|"1 ","5 ","10 "|"1 ","5 ","10 "|"1 ","5 ","10 "|"1 ","5 ","10 "|"1 ","5 ","10 "|"1 ","5 ","10 "|"1 ","5 ","10 "|"1 ","5 ","10 "|"1 ","5 ","10 "|"1 ","5 ","10 "|"1 ","5 ","10 "|"1 ","5 ","10 "|"1 ","5 ","10 "|"1 ","5 ","10 "|"1 ","5 ","10 "|"1 ","5 ","10 "|"1 ","5 ","10 "|"1 ","5 ","10 "|"1 ","5 ","10 "|"1 ","5 ","10 "|"1 ","5 ","10 "|"1 ","5 ","10 "|"1 ","5 ","10 "|"1 ","5 ","10 "|"1 ","5 ","10 "|"1 ","5 ","10 "|"1 ","5 ","10 "|"1 ","5 ","10 "|"1 ","5 ","10 "|"1 ","5 ","10 "|"1 ","5 ","10 "|"1 ","5 ","10 "|"1 ","5 ","10 "|"1 ","5 ","10 "|"1 ","5 ","10 "|"1 ","5 ","10 "|"1 ","5 ","10 "|"1 ","5 ","10 "|"1 ","5 ","10 "|"1 ","5 ","10 "|"1 ","5 ","10 "|"1 ","5 ","10 "|"1 ","5 ","10 "|"1 ","5 ","10 "|"1 ","5 ","10 "|"1 ","5 ","10 "|"1 ","5 ","10 "|"1 ","5 ","10 "|"1 ","5 ","10 "|"1 ","5 ","10 "|"1 ","5 ","10 "|"1 ","5 ","10 "|"1 ","5 ","10 "|"1 ","5 ","10 "|"1 ","5 ","10 "|"1 ","5 ","10 "|"1 ","5 ","10 "|"1 ","5 ","10 "|"1 ","5 ","10 "|"1 ","5 ","10 "|"1 ","5 ","10 "|"1 ","5 ","10 "|"1 ","5 ","10 "|"1 ","5 ","10 "|"1 ","5 ","10 "|"1 ","5 ","10 "|"1 ","5 ","10 "|"1 ","5 ","10 "|"1 ","5 ","10 "|"1 ","5 ","10 "|"1 ","5 ","10 "|"1 ","5 ","10 "|"1 ","5 ","10 "|"1 ","5 ","10 "|"1 ","5 ","10 "|"1 ","5 ","10 "|"1 ","5 ","10 "|"1 ","5 ","10 "|"1 ","5 ","10 "|"1 ","5 ","10 "|"1 ","5 ","10 "|"1 ","5 ","10 "|"1 ","5 ","10 "|"1 ","5 ","10 "|"1 ","5 ","10 "|"1 ","5 ","10 "|"1 ","5 ","10 "|"1 ","5 ","10 "|"1 ","5 ","10 "|"1 ","5 ","10 "|"1 ","5 ","10 "|"1 ","5 ","10 "|"1 ","5 ","10 "|"1 ","5 ","10 "|"1 ","5 ","10 "|"1 ","5 ","10 "|"1 ","5 ","10 "|"1 ","5 ","10 "|"1 ","5 ","10 "|"1 ","5 ","10 "|"1 ","5 ","10 "|"1 ","5 ","10 "|"1 ","5 ","10 "|"1 ","5 ","10 "|"1 ","5 ","10 "|"1 ","5 ","10 "|"1 ","5 ","10 "|"1 ","5 ","10 "|"1 ","5 ","10 "|"1 ","5 ","10 "|"1 ","5 ","10 "|"1 ","5 ","10 "|"1 ","5 ","10 "|"1 ","5 ","10 "|"1 ","5 ","10 "|"1 ","5 ","10 "|"1 ","5 ","10 "|"1 ","5 ","10 "|"1 ","5 ","10 "|"1 ","5 ","10 "|"1 ","5 ","10 "|"1 ","5 ","10 "|"1 ","5 ","10 "|"1 ","5 ","10 "|"1 ","5 ","10 "|"1 ","5 ","10 "|"1 ","5 ","10 "|"1 ","5 ","10 "|"1 ","5 ","10 "|"1 ","5 ","10 "|"1 ","5 ","10 "|"1 ","5 ","10 "|"1 ","5 ","10 "|"1 ","5 ","10 "|"1 ","5 ","10 "|"1 ","5 ","10 "|"1 ","5 ","10 "|"1 ","5 ","10 "|"1 ","5 ","10 "|"1 ","5 ","10 "|"1 ","5 ","10 "|"1 ","5 ","10 "|"1 ","5 ","10 "|"1 ","5 ","10 "|"1 ","5 ","10 "|"1 ","5 ","10 "|"1 ","5 ","10 "|"1 ","5 ","10 "|"1 ","5 ","10 "|"1 ","5 ","10 "|"1 ","5 ","10 "|"1 ","5 ","10 "|"1 ","5 ","10 "|"1 ","5 ","10 "|"1 ","5 ","10 "|"1 ","5 ","10 "|"1 ","5 ","10 "|"1 ","5 ","10 "|"1 ","5 ","10 "|"1 ","5 ","10 "|"1 ","5 ","10 "|"1 ","5 ","10 "|"1 ","5 ","10 "|"1 ","5 ","10 "|"1 ","5 ","10 "|"1 ","5 ","10 "|"1 ","5 ","10 "|"1 ","5 ","10 "|"1 ","5 ","10 "|"1 ","5 ","10 "|"1 ","5 ","10 "|"1 ","5 ","10 "|"1 ","5 ","10 "|"1 ","5 ","10 "|"1 ","5 ","10 "|"1 ","5 ","10 "|"1 ","5 ","10 "|"1 ","5 ","10 "|"1 ","5 ","10 "|"1 ","5 ","10 "|"1 ","5 ","10 "|"1 ","5 ","10 "|"1 ","5 ","10 "|"1 ","5 ","10 "|"1 ","5 ","10 "|"1 ","5 ","10 "|"1 ","5 ","10 "|"1 ","5 ","10 "|"1 ","5 ","10 "|"1 ","5 ","10 "|"1 ","5 ","10 "|"1 ","5 ","10 "|"1 ","5 ","10 "|"1 ","5 ","10 "|"1 ","5 ","10 "|"1 ","5 ","10 "|"1 ","5 ","10 "|"1 ","5 ","10 "|"1 ","5 ","10 "|"1 ","5 ","10 "|"1 ","5 ","10 "|"1 ","5 ","10 "|"1 ","5 ","10 "|"1 ","5 ","10 "|"1 ","5 ","10 "|"1 ","5 ","10 "|"1 ","5 ","10 "|"1 ","5 ","10 "|"1 ","5 ","10 "|"1 ","5 ","10 "|"1 ","5 ","10 "|];

compound_concentration_indicators = ["" | i in 1..max(compound_concentrations)]; 


%%% Combinations %%%
combinations = 	0;
combination_names = [];
combination_concentration_names = [];
combination_concentrations = 0;


%%% Controls %%%
num_controls = 9;
control_replicates = [4 | i in 1..num_controls];
control_concentrations = [2 | i in 1..num_controls];
control_names = ["[M]","[mc]","[etop]","[noco]","[bc]","[fen]","[fdh]","[t]","[sorbitol]"];
control_concentration_names =  [|"X ","Z "|"X ","Z "|"X ","Z "|"X ","Z "|"X ","Z "|"X ","Z "|"X ","Z "|"X ","Z "|"X ","Z "|];    
  

